(set-logic ALL)
(set-option :produce-models true)
(define-fun-rec str.toLower ((x String)) String
  (ite (= x "")
      ""
      (let ((Head (str.at x 0)))
        (str.++ 
          (ite (and (<= 65 (str.to_code Head)) 
                     (<= (str.to_code Head) 90))
               (str.from_code (+ (str.to_code Head) 32))
               Head)
          (str.toLower (str.substr x 1 (- (str.len x) 1)))))))
(declare-fun sym807 () String)
(declare-fun sym205 () String)
(declare-fun sym547 () String)
(declare-fun sym1659 () String)
(declare-fun sym2548 () String)
(declare-fun sym1446 () String)
(declare-fun sym2751 () String)
(declare-fun sym1233 () String)
(declare-fun sym1872 () String)
(declare-fun sym2301 () String)
(declare-fun sym1020 () String)
(declare-fun sym161 () String)
(declare-fun sym2095 () String)

(assert (not (= "" (str.toLower (str.substr sym205  0 1)))))
(assert (not (= "" sym1872 )))
(assert (not (= "" sym2751 )))
(assert (not (= (str.toLower (str.substr sym547  0 1))"p" )))
(assert (not (= (str.toLower (str.substr sym2751  0 1))"p" )))
(assert (not (= (str.toLower (str.substr sym807  0 1))"p" )))
(assert (not (= "y" "n" )))
(assert (= "" "" ))
(assert (= (str.toLower (str.substr sym2751  0 1))"k" ))
(assert (= (str.toLower (str.substr sym807  0 1))"k" ))
(assert (not (= (str.toLower (str.substr sym1659  0 1))"q" )))
(assert (= (str.toLower (str.substr sym1233  0 1))"k" ))
(assert (not (= "" sym2095 )))
(assert (not (= (str.toLower (str.substr sym1233  0 1))"p" )))
(assert (= "y" "y" ))
(assert (= (str.toLower (str.substr sym1872  0 1))"h" ))
(assert (not (= (str.toLower (str.substr sym547  0 1))"q" )))
(assert (not (= (str.toLower (str.substr sym2301  0 1))"q" )))
(assert (not (= (str.toLower (str.substr sym1872  0 1))"q" )))
(assert (not (= "" sym547 )))
(assert (not (= (str.toLower (str.substr sym1020  0 1))"q" )))
(assert (= (str.toLower (str.substr sym2301  0 1))"k" ))
(assert (not (= (str.toLower (str.substr sym2751  0 1))"q" )))
(assert (not (= "" sym807 )))
(assert (not (= "" sym2548 )))
(assert (not (= (str.toLower (str.substr sym1020  0 1))"p" )))
(assert (not (= "" sym1020 )))
(assert (not (= (str.toLower (str.substr sym1872  0 1))"k" )))
(assert (not (= (str.toLower (str.substr sym2548  0 1))"q" )))
(assert (not (= (str.toLower (str.substr sym1872  0 1))"g" )))
(assert (not (= "" sym1233 )))
(assert (not (= (str.toLower (str.substr sym1872  0 1))"l" )))
(assert (not (= (str.toLower (str.substr sym1446  0 1))"p" )))
(assert (not (= (str.toLower (str.substr sym2548  0 1))"p" )))
(assert (not (= (str.toLower (str.substr sym1659  0 1))"p" )))
(assert (not (= "" "q" )))
(assert (= (str.toLower (str.substr sym1659  0 1))"k" ))
(assert (not (= (str.toLower (str.substr sym1872  0 1))"r" )))
(assert (not (= "" sym1659 )))
(assert (= (str.toLower (str.substr sym205  0 1))"y" ))
(assert (not (= "" sym2301 )))
(assert (not (= (str.toLower (str.substr sym2095  0 1))"q" )))
(assert (not (= (str.toLower (str.substr sym1872  0 1))"p" )))
(assert (= (str.toLower (str.substr sym2548  0 1))"k" ))
(assert (not (= "" sym205 )))
(assert (= (str.toLower (str.substr sym547  0 1))"k" ))
(assert (= (str.toLower (str.substr sym1446  0 1))"k" ))
(assert (not (= (str.toLower (str.substr sym2095  0 1))"p" )))
(assert (not (= "" sym161 )))
(assert (not (= (str.toLower (str.substr sym807  0 1))"q" )))
(assert (= (str.toLower (str.substr sym2095  0 1))"k" ))
(assert (not (= (str.toLower (str.substr sym2301  0 1))"p" )))
(assert (not (= (str.toLower (str.substr sym1446  0 1))"q" )))
(assert (not (= "" "y" )))
(assert (not (= "" sym1446 )))
(assert (not (= "" "y" )))
(assert (= (str.toLower (str.substr sym1020  0 1))"k" ))
(assert (not (= (str.toLower (str.substr sym1233  0 1))"q" )))
(check-sat)
(get-model)
(exit)
